
Gurobi 9.0.1 (linux64) logging started Thu Apr 30 23:16:22 2020

Gurobi Optimizer version 9.0.1 build v9.0.1rc0 (linux64)
Optimize a model with 31542 rows, 27380 columns and 602600 nonzeros
Model fingerprint: 0x7d0aeca5
Variable types: 0 continuous, 27380 integer (27342 binary)
Coefficient statistics:
  Matrix range     [1e+00, 2e+01]
  Objective range  [2e+00, 1e+02]
  Bounds range     [1e+00, 1e+00]
  RHS range        [1e+00, 1e+00]

User MIP start produced solution with objective 1132 (0.90s)
Loaded user MIP start with objective 1132

Presolve removed 12792 rows and 8704 columns (presolve time = 5s) ...
Presolve removed 12834 rows and 8764 columns (presolve time = 10s) ...
Presolve removed 12834 rows and 8764 columns
Presolve time: 11.39s
Presolved: 18708 rows, 18616 columns, 503840 nonzeros
Variable types: 0 continuous, 18616 integer (18580 binary)

Root simplex log...

Iteration    Objective       Primal Inf.    Dual Inf.      Time
       0    0.0000000e+00   2.280000e+02   0.000000e+00     14s
    1196    5.2300003e+02   2.710778e+03   0.000000e+00     15s
    3296    5.2954555e+02   2.632760e+03   0.000000e+00     20s
    4556    5.3050012e+02   7.506376e+03   0.000000e+00     25s
    5816    5.3105573e+02   2.243419e+04   0.000000e+00     30s
    7412    5.3286679e+02   1.236089e+04   0.000000e+00     35s
    8756    5.3775415e+02   9.085543e+03   0.000000e+00     40s
   10184    5.3988278e+02   1.853145e+04   0.000000e+00     45s
   11108    5.4155839e+02   1.577949e+03   0.000000e+00     50s
   12032    5.4381518e+02   9.891775e+03   0.000000e+00     55s
   13040    5.4596937e+02   1.463132e+04   0.000000e+00     60s
   14132    5.4659439e+02   1.411903e+04   0.000000e+00     65s
   15056    5.4912415e+02   3.369052e+04   0.000000e+00     70s
   16064    5.5029180e+02   1.022103e+04   0.000000e+00     75s
   16904    5.5110621e+02   1.218985e+04   0.000000e+00     80s
   17828    5.5189740e+02   1.845223e+05   0.000000e+00     85s
   18836    5.5253562e+02   1.031643e+04   0.000000e+00     90s
   19760    5.5287392e+02   3.032383e+03   0.000000e+00     96s
   20520    5.5372839e+02   1.762516e+03   0.000000e+00    100s
   21360    5.5439823e+02   3.293013e+03   0.000000e+00    106s
   22116    5.5468764e+02   2.587611e+03   0.000000e+00    110s
   22872    5.5527898e+02   4.614815e+03   0.000000e+00    115s
   23712    5.5582194e+02   2.317827e+03   0.000000e+00    120s
   24468    5.5622858e+02   1.432988e+03   0.000000e+00    125s
   25224    5.5654202e+02   1.232493e+03   0.000000e+00    130s
   25980    5.5684259e+02   1.518722e+03   0.000000e+00    135s
   26652    5.5715852e+02   7.416162e+02   0.000000e+00    140s
   27324    5.5784995e+02   8.699929e+03   0.000000e+00    145s
   28080    5.5812076e+02   5.179163e+02   0.000000e+00    151s
   28785    5.5832511e+02   8.888865e+02   0.000000e+00    155s
   29541    5.5855347e+02   2.650109e+03   0.000000e+00    160s
   30297    5.5878486e+02   3.013823e+02   0.000000e+00    165s
   31053    5.5908570e+02   1.471053e+02   0.000000e+00    171s
   31641    5.5924372e+02   1.037081e+03   0.000000e+00    175s
   32406    5.5933598e+02   4.049508e+02   0.000000e+00    180s
   32994    5.5950704e+02   2.050095e+02   0.000000e+00    185s
   33666    5.5965103e+02   7.687810e+02   0.000000e+00    191s
   34338    5.5970694e+02   1.043519e-01   0.000000e+00    196s
   34434    5.5970934e+02   0.000000e+00   0.000000e+00    197s

Root relaxation: objective 5.597093e+02, 34434 iterations, 184.18 seconds

    Nodes    |    Current Node    |     Objective Bounds      |     Work
 Expl Unexpl |  Obj  Depth IntInf | Incumbent    BestBd   Gap | It/Node Time

     0     0  559.70934    0 2996 1132.00000  559.70934  50.6%     -  206s
     0     0  596.76917    0 2987 1132.00000  596.76917  47.3%     -  400s
     0     0  597.90732    0 2910 1132.00000  597.90732  47.2%     -  452s
     0     0  597.95948    0 2931 1132.00000  597.95948  47.2%     -  463s
     0     0  597.96126    0 2932 1132.00000  597.96126  47.2%     -  465s
     0     0  613.01729    0 3043 1132.00000  613.01729  45.8%     -  673s
     0     0  613.76479    0 3092 1132.00000  613.76479  45.8%     -  727s
     0     0  613.92144    0 3077 1132.00000  613.92144  45.8%     -  747s
     0     0  613.95098    0 3063 1132.00000  613.95098  45.8%     -  756s
     0     0  613.95291    0 3073 1132.00000  613.95291  45.8%     -  759s
     0     0  621.00058    0 3135 1132.00000  621.00058  45.1%     - 1053s
     0     0  621.27841    0 3111 1132.00000  621.27841  45.1%     - 1097s
     0     0  621.31014    0 3148 1132.00000  621.31014  45.1%     - 1110s
     0     0  621.31349    0 3128 1132.00000  621.31349  45.1%     - 1115s
     0     0  623.96281    0 3213 1132.00000  623.96281  44.9%     - 1330s
     0     0  624.24537    0 3204 1132.00000  624.24537  44.9%     - 1390s
     0     0  624.28787    0 3198 1132.00000  624.28787  44.9%     - 1407s
     0     0  624.29800    0 3199 1132.00000  624.29800  44.8%     - 1414s
     0     0  626.00060    0 3226 1132.00000  626.00060  44.7%     - 1555s
     0     0  626.15703    0 3222 1132.00000  626.15703  44.7%     - 1614s
     0     0  626.20920    0 3220 1132.00000  626.20920  44.7%     - 1631s
     0     0  626.22606    0 3214 1132.00000  626.22606  44.7%     - 1642s
     0     0  626.80202    0 3244 1132.00000  626.80202  44.6%     - 1713s
     0     0  626.92264    0 3244 1132.00000  626.92264  44.6%     - 1757s
     0     0  626.94925    0 3253 1132.00000  626.94925  44.6%     - 1767s
     0     0  626.97063    0 3237 1132.00000  626.97063  44.6%     - 1777s
     0     0  626.97721    0 3247 1132.00000  626.97721  44.6%     - 1783s
     0     0  627.40377    0 3216 1132.00000  627.40377  44.6%     - 1840s
     0     0  627.53021    0 3256 1132.00000  627.53021  44.6%     - 1902s
     0     0  627.55471    0 3248 1132.00000  627.55471  44.6%     - 1913s
     0     0  627.56675    0 3267 1132.00000  627.56675  44.6%     - 1921s
     0     0  627.94662    0 3255 1132.00000  627.94662  44.5%     - 1973s
     0     0  627.99095    0 3255 1132.00000  627.99095  44.5%     - 2037s
     0     0  628.00177    0 3264 1132.00000  628.00177  44.5%     - 2044s
     0     0  628.44799    0 3260 1132.00000  628.44799  44.5%     - 2111s
     0     0  628.52472    0 3269 1132.00000  628.52472  44.5%     - 2142s
     0     0  628.54315    0 3278 1132.00000  628.54315  44.5%     - 2155s
     0     0  629.66980    0 3263 1132.00000  629.66980  44.4%     - 2232s
     0     0  629.75449    0 3258 1132.00000  629.75449  44.4%     - 2323s
     0     0  629.76817    0 3261 1132.00000  629.76817  44.4%     - 2332s
     0     0  630.35776    0 3284 1132.00000  630.35776  44.3%     - 2392s
     0     0  630.54091    0 3290 1132.00000  630.54091  44.3%     - 2418s
     0     0  630.56340    0 3298 1132.00000  630.56340  44.3%     - 2426s
     0     0  630.56812    0 3298 1132.00000  630.56812  44.3%     - 2430s
     0     0  630.85806    0 3284 1132.00000  630.85806  44.3%     - 2469s
     0     0  630.91160    0 3299 1132.00000  630.91160  44.3%     - 2486s
     0     0  630.92429    0 3298 1132.00000  630.92429  44.3%     - 2492s
     0     0  631.05178    0 3275 1132.00000  631.05178  44.3%     - 2522s
     0     0  631.10525    0 3281 1132.00000  631.10525  44.2%     - 2540s
     0     0  631.11467    0 3297 1132.00000  631.11467  44.2%     - 2546s
     0     0  631.28541    0 3276 1132.00000  631.28541  44.2%     - 2581s
     0     0  631.28541    0 3276 1132.00000  631.28541  44.2%     - 2604s
     0     2  631.28759    0 3276 1132.00000  631.28759  44.2%     - 2845s
     1     3  633.62081    1 3207 1132.00000  631.28759  44.2% 18900 2997s
     2     4  636.67827    1 3055 1132.00000  633.62081  44.0% 21883 3189s
     3     5  633.85723    2 3214 1132.00000  633.62081  44.0% 15736 3216s

Cutting planes:
  Cover: 4
  MIR: 102
  StrongCG: 19
  Zero half: 50
  Mod-K: 9
  RLT: 1592

Explored 4 nodes (275429 simplex iterations) in 3600.02 seconds
Thread count was 1 (of 40 available processors)

Solution count 1: 1132 

Time limit reached
Best objective 1.132000000000e+03, best bound 6.340000000000e+02, gap 43.9929%

User-callback calls 11048, time in user-callback 0.02 sec
